25, 267
1, 30, 38
2, 24, 28
3, 22, 24
4, 27, 39
5, 23, 22
6, 16, 18
7, 32, 36
8, 26, 19
9, 34, 20
10, 31, 37
11, 29, 26
12, 39, 33
13, 38, 21
14, 37, 16
15, 20, 29
16, 15, 25
17, 35, 34
18, 33, 17
19, 36, 35
20, 28, 30
21, 21, 15
22, 17, 27
23, 19, 23
24, 18, 31
25, 25, 32